100
15 0
2 0
0 0
11 3
23 1
18 4
29 3
29 4
25 2
31 0
16 3
42 3
15 2
21 3
11 4
34 0
14 4
27 4
30 4
31 3
20 0
19 0
39 3
21 4
26 2
33 3
21 2
43 3
1 0
9 4
16 0
27 0
15 4
41 0
5 2
3 4
4 4
12 3
44 0
5 4
33 2
35 1
4 1
34 4
29 0
31 1
17 4
16 4
41 4
26 1
18 0
4 0
36 4
10 4
42 4
6 3
28 4
25 0
3 2
33 1
44 3
31 4
32 4
40 3
2 1
3 0
8 4
19 3
23 3
4 2
26 0
13 4
30 0
33 4
27 1
28 0
44 4
21 0
43 1
36 0
36 1
24 1
38 0
6 1
7 2
32 0
16 2
19 4
29 2
4 3
22 4
22 0
37 4
5 0
0 4
1 3
18 1
9 0
12 0
9 1

